\ENCODING=ISO-8859-1
\Problem name: ilog.cplex

Minimize
 obj: x1
Subject To
 c1:   x5  = 0
 c2:   x6 - 2 x7 - 2 x8 - 2 x9 - 2 x10 - 2 x11 - 2 x12 - 2 x13 - 2 x14 - 2 x15
       - 2 x16 - 2 x17 - 2 x18 - 2 x19 - 2 x20 - 2 x21 - 2 x22 - 2 x23 - 2 x24
       - 2 x25 - 2 x26 - 2 x27 - 2 x28 - 2 x29 - 2 x30 - 2 x31 - 2 x32 - 2 x33
       - 2 x34 - 2 x35 - 2 x36 - 2 x37 - 2 x38 - 2 x39 - 2 x40 - 2 x41 - 2 x42
       - 2 x43 - 2 x44 - 2 x45 - 2 x46 - 2 x47 - 2 x48 - 2 x49 - 2 x50 - 2 x51
       - 2 x52 - 2 x53 - 2 x54 - 2 x55 - 2 x56 - 2 x57 - 2 x58 - 2 x59 - 2 x60
       - 2 x61 - 2 x62 - 2 x63 - 2 x64 - 2 x65 - 2 x66 - 2 x67 - 2 x68 - 2 x69
       - 2 x70 - 2 x71 - 2 x72 - 2 x73 - 2 x74 - 2 x75 - 2 x76 - 2 x77 - 2 x78
       - 2 x79 - 2 x80 - 2 x81 - 2 x82 - 2 x83 - 2 x84 - 2 x85 - 2 x86 - 2 x87
       - 2 x88 - 2 x89 - 2 x90 - 2 x91 - 2 x92 - 2 x93 - 2 x94 - 2 x95 - 2 x96
       - 2 x97 - 2 x98 - 2 x99 - 2 x100 - 2 x101 - 2 x102 - 2 x103 - 2 x104
       - 2 x105 - 2 x106 - 2 x107 - 2 x108 - 2 x109 - 2 x110 - 2 x111 - 2 x112
       - 2 x113 - 2 x114 - 2 x115 - 2 x116 - 2 x117 - 2 x118 - 2 x119 - 2 x120
       - 2 x121 - 2 x122 - 2 x123 - 2 x124 - 2 x125 - 2 x126 - 2 x127 - 2 x128
       - 2 x129 - 2 x130 - 2 x131 - 2 x132 - 2 x133 - 2 x134 - 2 x135 - 2 x136
       - 2 x137 - 2 x138 - 2 x139 - 2 x140 - 2 x141 - 2 x142 - 2 x143 - 2 x144
       - 2 x145 - 2 x146 - 2 x147 - 2 x148 - 2 x149 - 2 x150 - 2 x151 - 2 x152
       - 2 x153 - 2 x154 - 2 x155 - 2 x156 - 2 x157 - 2 x158 - 2 x159 - 2 x160
       - 2 x161 - 2 x162 - 2 x163 - 2 x164 - 2 x165 - 2 x166 - 2 x167 - 2 x168
       - 2 x169 - 2 x170 - 2 x171 - 2 x172 - 2 x173 - 2 x174 - 2 x175 - 2 x176
       - 2 x177 - 2 x178 - 2 x179 - 2 x180 - 2 x181 - 2 x182 - 2 x183 - 2 x184
       - 2 x185 - 2 x186 - 2 x187 - 2 x188 - 2 x189 - 2 x190 - 2 x191 - 2 x192
       - 2 x193 - 2 x194 - 2 x195 - 2 x196 - 2 x197 - 2 x198 - 2 x199 - 2 x200
       - 2 x201 - 2 x202 - 2 x203 - 2 x204 - 2 x205 - 2 x206 - 2 x207 - 2 x208
       - 2 x209 - 2 x210 - 2 x211 - 2 x212 - 2 x213 - 2 x214 - 2 x215 - 2 x216
       - 2 x217 - 2 x218 - 2 x219 - 2 x220 - 2 x221 - 2 x222 - 2 x223 - 2 x224
       - 2 x225 - 2 x226 - 2 x227 - 2 x228 - 2 x229 - 2 x230 - 2 x231 - 2 x232
       - 2 x233 - 2 x234 - 2 x235 - 2 x236 - 2 x237 - 2 x238 - 2 x239 - 2 x240
       - 2 x241 - 2 x242 - 2 x243 - 2 x244 - 2 x245 - 2 x246 - 2 x247 - 2 x248
       - 2 x249 - 2 x250 - 2 x251 - 2 x252 - 2 x253 - 2 x254 - 2 x255 - 2 x256
       - 2 x257 - 2 x258 - 2 x259 - 2 x260 - 2 x261 - 2 x262 - 2 x263 - 2 x264
       - 2 x265 - 2 x266 - 2 x267 - 2 x268 - 2 x269 - 2 x270 - 2 x271 - 2 x272
       - 2 x273 - 2 x274 - 2 x275 - 2 x276 - 2 x277 - 2 x278 - 2 x279 - 2 x280
       - 2 x281 - 2 x282 - 2 x283 - 2 x284 - 2 x285 - 2 x286 - 2 x287 - 2 x288
       - 2 x289 - 2 x290 - 2 x291 - 2 x292 - 2 x293 - 2 x294 - 2 x295 - 2 x296
       - 2 x297 - 2 x298 - 2 x299 - 2 x300 - 2 x301 - 2 x302 - 2 x303 - 2 x304
       - 2 x305 - 2 x306 - 2 x307 - 2 x308 - 2 x309 - 2 x310 - 2 x311 - 2 x312
       - 2 x313 - 2 x314 - 2 x315 - 2 x316 - 2 x317 - 2 x318 - 2 x319 - 2 x320
       - 2 x321 - 2 x322 - 2 x323 - 2 x324 - 2 x325 - 2 x326 - 2 x327 - 2 x328
       - 2 x329 - 2 x330 - 2 x331 - 2 x332 - 2 x333 - 2 x334 - 2 x335 - 2 x336
       - 2 x337 - 2 x338 - 2 x339 - 2 x340 - 2 x341 - 2 x342 - 2 x343 - 2 x344
       - 2 x345 - 2 x346 - 2 x347 - 2 x348 - 2 x349 - 2 x350 - 2 x351 - 2 x352
       - 2 x353 - 2 x354 - 2 x355 - 2 x356 - 2 x357 - 2 x358 - 2 x359 - 2 x360
       - 2 x361 - 2 x362 - 2 x363 - 2 x364 - 2 x365 - 2 x366 - 2 x367 - 2 x368
       - 2 x369 - 2 x370 - 2 x371 - 2 x372 - 2 x373 - 2 x374 - 2 x375 - 2 x376
       - 2 x377 - 2 x378 - 2 x379 - 2 x380 - 2 x381 - 2 x382 - 2 x383 - 2 x384
       - 2 x385 - 2 x386 - 2 x387 - 2 x388 - 2 x389 - 2 x390 - 2 x391 - 2 x392
       - 2 x393 - 2 x394 - 2 x395 - 2 x396 - 2 x397 - 2 x398 - 2 x399 - 2 x400
       - 2 x401 - 2 x402 - 2 x403 - 2 x404 - 2 x405 - 2 x406 - 2 x407 - 2 x408
       - 2 x409 - 2 x410 - 2 x411 - 2 x412 - 2 x413 - 2 x414 - 2 x415 - 2 x416
       - 2 x417 - 2 x418 - 2 x419 - 2 x420 - 2 x421 - 2 x422 - 2 x423 - 2 x424
       - 2 x425 - 2 x426 - 2 x427 - 2 x428 - 2 x429 - 2 x430 - 2 x431 - 2 x432
       - 2 x433 - 2 x434 - 2 x435 - 2 x436 - 2 x437 - 2 x438  = 0
 c3:   x2 - x4  = 0
 c4:   x3 - x439 - x440 - x441 - x442 - x443 - x444 - x445 - x446 - x447 - x448
       - x449 - x450 - x451 - x452 - x453 - x454 - x455 - x456 - x457 - x458
       - x459 - x460 - x461 - x462 - x463 - x464 - x465 - x466 - x467 - x468
       - x469 - x470 - x471 - x472 - x473 - x474 - x475 - x476 - x477 - x478
       - x479 - x480 - x481 - x482 - x483 - x484 - x485 - x486 - x487 - x488
       - x489 - x490 - x491 - x492 - x493 - x494 - x495 - x496 - x497 - x498
       - x499 - x500 - x501 - x502 - x503 - x504 - x505 - x506 - x507 - x508
       - x509 - x510 - x511 - x512 - x513 - x514 - x515 - x516 - x517 - x518
       - x519 - x520 - x521 - x522 - x523 - x524 - x525 - x526 - x527 - x528
       - x529 - x530 - x531 - x532 - x533 - x534 - x535 - x536 - x537 - x538
       - x539 - x540 - x541 - x542 - x543 - x544 - x545 - x546 - x547 - x548
       - x549 - x550 - x551 - x552 - x553 - x554 - x555 - x556 - x557 - x558
       - x559 - x560 - x561 - x562 - x563 - x564 - x565 - x566 - x567 - x568
       - x569 - x570 - x571 - x572 - x573 - x574 - x575 - x576 - x577 - x578
       - x579 - x580 - x581 - x582 - x583 - x584 - x585 - x586 - x587 - x588
       - x589 - x590 - x591 - x592 - x593 - x594 - x595 - x596 - x597 - x598
       - x599 - x600 - x601 - x602 - x603 - x604 - x605 - x606 - x607 - x608
       - x609 - x610 - x611 - x612 - x613 - x614 - x615 - x616 - x617 - x618
       - x619 - x620 - x621 - x622 - x623 - x624 - x625 - x626 - x627 - x628
       - x629 - x630 - x631 - x632 - x633 - x634 - x635 - x636 - x637 - x638
       - x639 - x640 - x641 - x642 - x643 - x644 - x645 - x646 - x647 - x648
       - x649 - x650 - x651 - x652 - x653 - x654 - x655 - x656 - x657 - x658
       - x659 - x660 - x661 - x662 - x663 - x664 - x665 - x666 - x667 - x668
       - x669 - x670 - x671 - x672 - x673 - x674 - x675 - x676 - x677 - x678
       - x679 - x680 - x681 - x682 - x683 - x684 - x685 - x686 - x687 - x688
       - x689 - x690 - x691 - x692 - x693 - x694 - x695 - x696 - x697 - x698
       - x699 - x700 - x701 - x702 - x703 - x704 - x705 - x706 - x707 - x708
       - x709 - x710 - x711 - x712 - x713 - x714 - x715 - x716 - x717 - x718
       - x719 - x720 - x721 - x722 - x723 - x724 - x725 - x726 - x727 - x728
       - x729 - x730 - x731 - x732 - x733 - x734 - x735 - x736 - x737 - x738
       - x739 - x740 - x741 - x742 - x743 - x744 - x745 - x746 - x747 - x748
       - x749 - x750 - x751 - x752 - x753 - x754 - x755 - x756 - x757 - x758
       - x759 - x760 - x761 - x762 - x763 - x764 - x765 - x766 - x767 - x768
       - x769 - x770 - x771 - x772 - x773 - x774 - x775 - x776 - x777 - x778
       - x779 - x780 - x781 - x782 - x783 - x784 - x785 - x786 - x787 - x788
       - x789 - x790 - x791 - x792 - x793 - x794 - x795 - x796 - x797 - x798
       - x799 - x800 - x801 - x802 - x803 - x804 - x805 - x806 - x807 - x808
       - x809 - x810 - x811 - x812 - x813 - x814 - x815 - x816 - x817 - x818
       - x819 - x820 - x821 - x822 - x823 - x824 - x825 - x826 - x827 - x828
       - x829 - x830 - x831 - x832 - x833 - x834 - x835 - x836 - x837 - x838
       - x839 - x840 - x841 - x842 - x843 - x844 - x845 - x846 - x847 - x848
       - x849 - x850 - x851 - x852 - x853 - x854 - x855 - x856 - x857 - x858
       - x859 - x860 - x861 - x862 - x863 - x864 - x865 - x866 - x867 - x868
       - x869 - x870  = 0
 c5:   - x73 + x145 + x361  = 0
 c6:   - x145 + x217  = 0
 c7:   - x217 - x289 + x433  = 0
 c8:   x289 - x361  = 0
 c9:   - x37 + x109 + x325  = 0
 c10:  - x109 + x181  = 0
 c11:  - x181 - x253 + x397  = 0
 c12:  x253 - x325  = 0
 c13:  - x505 + x577 + x793  = 0
 c14:  - x577 + x649  = 0
 c15:  - x649 - x721 + x865  = 0
 c16:  x721 - x793  = 0
 c17:  - x469 + x541 + x757  = 0
 c18:  - x541 + x613  = 0
 c19:  - x613 - x685 + x829  = 0
 c20:  x685 - x757  = 0
 c21:  x37 + x73  = 20
 c22:  x469 + x505  = 10
 c23:  x397 + x433  = 20
 c24:  x829 + x865  = 10
 c25:  x73 + x145 + x217 + x289 + x361 + x433 >= 4.94065645841247e-324
 c26:  x37 + x109 + x181 + x253 + x325 + x397 >= 4.94065645841247e-324
 c27:  x505 + x577 + x649 + x721 + x793 + x865 >= 4.94065645841247e-324
 c28:  x469 + x541 + x613 + x685 + x757 + x829 >= 4.94065645841247e-324
 c29:  x37 + x73 <= 100
 c30:  x109 + x145 <= 100
 c31:  x181 + x217 <= 100
 c32:  x253 + x289 <= 100
 c33:  x325 + x361 <= 100
 c34:  x397 + x433 <= 100
 c35:  x469 + x505 <= 100
 c36:  x541 + x577 <= 100
 c37:  x613 + x649 <= 100
 c38:  x685 + x721 <= 100
 c39:  x757 + x793 <= 100
 c40:  x829 + x865 <= 100
 c41:  x871 >= 0
 c42:  x871 <= 0
 c43:  x872 >= 0
 c44:  x872 <= 0
 c45:  x873 >= 0
 c46:  x873 <= 0
 c47:  x874 >= 0
 c48:  x874 <= 0
 c49:  - x37 - x73 + x875 >= 0
 c50:  - x37 - x73 + x875 + 20 x876 <= 20
 c51:  x877 >= 0
 c52:  x877 <= 0
 c53:  x878 >= 0
 c54:  x878 <= 0
 c55:  x879 >= 0
 c56:  x879 <= 0
 c57:  x880 >= 0
 c58:  x880 <= 0
 c59:  - x109 - x145 + x881 >= 0
 c60:  - x109 - x145 + x881 + 20 x882 <= 20
 c61:  x883 >= 0
 c62:  x883 <= 0
 c63:  x884 >= 0
 c64:  x884 <= 0
 c65:  x885 >= 0
 c66:  x885 <= 0
 c67:  x886 >= 0
 c68:  x886 <= 0
 c69:  - x181 - x217 + x887 >= 0
 c70:  - x181 - x217 + x887 + 20 x888 <= 20
 c71:  x889 >= 0
 c72:  x889 <= 0
 c73:  x890 >= 0
 c74:  x890 <= 0
 c75:  x891 >= 0
 c76:  x891 <= 0
 c77:  x892 >= 0
 c78:  x892 <= 0
 c79:  - x253 - x289 + x893 >= 0
 c80:  - x253 - x289 + x893 + 20 x894 <= 20
 c81:  x877 >= 0
 c82:  x877 <= 0
 c83:  x878 >= 0
 c84:  x878 <= 0
 c85:  x879 >= 0
 c86:  x879 <= 0
 c87:  x880 >= 0
 c88:  x880 <= 0
 c89:  - x325 - x361 + x881 >= 0
 c90:  - x325 - x361 + x881 + 20 x895 <= 20
 c91:  x896 >= 0
 c92:  x896 <= 0
 c93:  x897 >= 0
 c94:  x897 <= 0
 c95:  x898 >= 0
 c96:  x898 <= 0
 c97:  x899 >= 0
 c98:  x899 <= 0
 c99:  - x397 - x433 + x900 >= 0
 c100: - x397 - x433 + x900 + 20 x901 <= 20
 c101: x902 >= 0
 c102: x902 <= 0
 c103: x903 >= 0
 c104: x903 <= 0
 c105: x904 >= 0
 c106: x904 <= 0
 c107: x905 >= 0
 c108: x905 <= 0
 c109: - x469 - x505 + x906 >= 0
 c110: - x469 - x505 + 10 x876 + x906 <= 10
 c111: x907 >= 0
 c112: x907 <= 0
 c113: x908 >= 0
 c114: x908 <= 0
 c115: x909 >= 0
 c116: x909 <= 0
 c117: x910 >= 0
 c118: x910 <= 0
 c119: - x541 - x577 + x911 >= 0
 c120: - x541 - x577 + 10 x882 + x911 <= 10
 c121: x912 >= 0
 c122: x912 <= 0
 c123: x913 >= 0
 c124: x913 <= 0
 c125: x914 >= 0
 c126: x914 <= 0
 c127: x915 >= 0
 c128: x915 <= 0
 c129: - x613 - x649 + x916 >= 0
 c130: - x613 - x649 + 10 x888 + x916 <= 10
 c131: x917 >= 0
 c132: x917 <= 0
 c133: x918 >= 0
 c134: x918 <= 0
 c135: x919 >= 0
 c136: x919 <= 0
 c137: x920 >= 0
 c138: x920 <= 0
 c139: - x685 - x721 + x921 >= 0
 c140: - x685 - x721 + 10 x894 + x921 <= 10
 c141: x907 >= 0
 c142: x907 <= 0
 c143: x908 >= 0
 c144: x908 <= 0
 c145: x909 >= 0
 c146: x909 <= 0
 c147: x910 >= 0
 c148: x910 <= 0
 c149: - x757 - x793 + x911 >= 0
 c150: - x757 - x793 + 10 x895 + x911 <= 10
 c151: x922 >= 0
 c152: x922 <= 0
 c153: x923 >= 0
 c154: x923 <= 0
 c155: x924 >= 0
 c156: x924 <= 0
 c157: x925 >= 0
 c158: x925 <= 0
 c159: - x829 - x865 + x926 >= 0
 c160: - x829 - x865 + 10 x901 + x926 <= 10
 c161: x37 + x73 - 20 x876 <= 0
 c162: x109 + x145 - 20 x882 <= 0
 c163: x181 + x217 - 20 x888 <= 0
 c164: x253 + x289 - 20 x894 <= 0
 c165: x325 + x361 - 20 x895 <= 0
 c166: x397 + x433 - 20 x901 <= 0
 c167: x469 + x505 - 10 x876 <= 0
 c168: x541 + x577 - 10 x882 <= 0
 c169: x613 + x649 - 10 x888 <= 0
 c170: x685 + x721 - 10 x894 <= 0
 c171: x757 + x793 - 10 x895 <= 0
 c172: x829 + x865 - 10 x901 <= 0
 c173: x927 + x928 - x929 + x930 >= 1
 c174: 120 x927 + x928 - x929 + x930 <= 120
 c175: x928 + x931 - x932 + x933 >= 1
 c176: x928 + 120 x931 - x932 + x933 <= 120
 c177: x928 + x934 - x935 + x936 >= 1
 c178: x928 + 120 x934 - x935 + x936 <= 120
 c179: x928 + x937 - x938 + x939 >= 1
 c180: x928 + 120 x937 - x938 + x939 <= 120
 c181: x928 + x940 - x941 + x942 >= 1
 c182: x928 + 120 x940 - x941 + x942 <= 120
 c183: x876 + x928 - x943 + x944 >= 1
 c184: 120 x876 + x928 - x943 + x944 <= 120
 c185: - x930 + x945 + x946 + x947 >= 1
 c186: - x930 + 120 x945 + x946 + x947 <= 120
 c187: - x933 + x946 + x948 + x949 >= 1
 c188: - x933 + x946 + 120 x948 + x949 <= 120
 c189: - x936 + x946 + x950 + x951 >= 1
 c190: - x936 + x946 + 120 x950 + x951 <= 120
 c191: - x939 + x946 + x952 + x953 >= 1
 c192: - x939 + x946 + 120 x952 + x953 <= 120
 c193: - x942 + x946 + x954 + x955 >= 1
 c194: - x942 + x946 + 120 x954 + x955 <= 120
 c195: x882 - x944 + x946 + x956 >= 1
 c196: 120 x882 - x944 + x946 + x956 <= 120
 c197: - x947 + x957 + x958 + x959 >= 1
 c198: - x947 + 120 x957 + x958 + x959 <= 120
 c199: - x949 + x958 + x960 + x961 >= 1
 c200: - x949 + x958 + 120 x960 + x961 <= 120
 c201: - x951 + x958 + x962 + x963 >= 1
 c202: - x951 + x958 + 120 x962 + x963 <= 120
 c203: - x953 + x958 + x964 + x965 >= 1
 c204: - x953 + x958 + 120 x964 + x965 <= 120
 c205: - x955 + x958 + x966 + x967 >= 1
 c206: - x955 + x958 + 120 x966 + x967 <= 120
 c207: x888 - x956 + x958 + x968 >= 1
 c208: 120 x888 - x956 + x958 + x968 <= 120
 c209: x959 + x969 + x970 - x971 >= 1
 c210: x959 + 120 x969 + x970 - x971 <= 120
 c211: x961 + x970 + x972 - x973 >= 1
 c212: x961 + x970 + 120 x972 - x973 <= 120
 c213: x963 + x970 + x974 - x975 >= 1
 c214: x963 + x970 + 120 x974 - x975 <= 120
 c215: x965 + x970 + x976 - x977 >= 1
 c216: x965 + x970 + 120 x976 - x977 <= 120
 c217: x967 + x970 + x978 - x979 >= 1
 c218: x967 + x970 + 120 x978 - x979 <= 120
 c219: x894 + x968 + x970 - x980 >= 1
 c220: 120 x894 + x968 + x970 - x980 <= 120
 c221: - x930 + x971 + x981 + x982 >= 1
 c222: - x930 + x971 + 120 x981 + x982 <= 120
 c223: - x933 + x973 + x982 + x983 >= 1
 c224: - x933 + x973 + x982 + 120 x983 <= 120
 c225: - x936 + x975 + x982 + x984 >= 1
 c226: - x936 + x975 + x982 + 120 x984 <= 120
 c227: - x939 + x977 + x982 + x985 >= 1
 c228: - x939 + x977 + x982 + 120 x985 <= 120
 c229: - x942 + x979 + x982 + x986 >= 1
 c230: - x942 + x979 + x982 + 120 x986 <= 120
 c231: x895 - x944 + x980 + x982 >= 1
 c232: 120 x895 - x944 + x980 + x982 <= 120
 c233: - x959 + x987 + x988 + x989 >= 1
 c234: - x959 + 120 x987 + x988 + x989 <= 120
 c235: - x961 + x988 + x990 + x991 >= 1
 c236: - x961 + x988 + 120 x990 + x991 <= 120
 c237: - x963 + x988 + x992 + x993 >= 1
 c238: - x963 + x988 + 120 x992 + x993 <= 120
 c239: - x965 + x988 + x994 + x995 >= 1
 c240: - x965 + x988 + 120 x994 + x995 <= 120
 c241: - x967 + x988 + x996 + x997 >= 1
 c242: - x967 + x988 + 120 x996 + x997 <= 120
 c243: x901 - x968 + x988 + x998 >= 1
 c244: 120 x901 - x968 + x988 + x998 <= 120
 c245: x73 + 2 x145 + 2 x217 + 2 x289 + 2 x361 + x433 >= 1
 c246: x37 + 2 x109 + 2 x181 + 2 x253 + 2 x325 + x397 >= 1
 c247: x505 + 2 x577 + 2 x649 + 2 x721 + 2 x793 + x865 >= 1
 c248: x469 + 2 x541 + 2 x613 + 2 x685 + 2 x757 + x829 >= 1
 c249: x145 - 100 x999 <= 0
 c250: - x73 + x145 <= 0
 c251: - x73 + x145 - 100 x999 >= -100
 c252: x217 - 100 x1000 <= 0
 c253: - x145 + x217 <= 0
 c254: - x145 + x217 - 100 x1000 >= -100
 c255: x289 - 100 x1001 <= 0
 c256: x289 - x361 <= 0
 c257: x289 - x361 - 100 x1001 >= -100
 c258: x361 - 100 x1002 <= 0
 c259: - x73 + x361 <= 0
 c260: - x73 + x361 - 100 x1002 >= -100
 c261: x109 - 100 x1003 <= 0
 c262: - x37 + x109 <= 0
 c263: - x37 + x109 - 100 x1003 >= -100
 c264: x181 - 100 x1004 <= 0
 c265: - x109 + x181 <= 0
 c266: - x109 + x181 - 100 x1004 >= -100
 c267: x253 - 100 x1005 <= 0
 c268: x253 - x325 <= 0
 c269: x253 - x325 - 100 x1005 >= -100
 c270: x325 - 100 x1006 <= 0
 c271: - x37 + x325 <= 0
 c272: - x37 + x325 - 100 x1006 >= -100
 c273: x577 - 100 x1007 <= 0
 c274: - x505 + x577 <= 0
 c275: - x505 + x577 - 100 x1007 >= -100
 c276: x649 - 100 x1008 <= 0
 c277: - x577 + x649 <= 0
 c278: - x577 + x649 - 100 x1008 >= -100
 c279: x721 - 100 x1009 <= 0
 c280: x721 - x793 <= 0
 c281: x721 - x793 - 100 x1009 >= -100
 c282: x793 - 100 x1010 <= 0
 c283: - x505 + x793 <= 0
 c284: - x505 + x793 - 100 x1010 >= -100
 c285: x541 - 100 x1011 <= 0
 c286: - x469 + x541 <= 0
 c287: - x469 + x541 - 100 x1011 >= -100
 c288: x613 - 100 x1012 <= 0
 c289: - x541 + x613 <= 0
 c290: - x541 + x613 - 100 x1012 >= -100
 c291: x685 - 100 x1013 <= 0
 c292: x685 - x757 <= 0
 c293: x685 - x757 - 100 x1013 >= -100
 c294: x757 - 100 x1014 <= 0
 c295: - x469 + x757 <= 0
 c296: - x469 + x757 - 100 x1014 >= -100
 c297: <= 1000
 c298: x37 + x73 <= 1000
 c299: x109 + x145 <= 1000
 c300: x181 + x217 + x253 + x289 <= 1000
 c301: x325 + x361 <= 1000
 c302: <= 1000
 c303: <= 1000
 c304: x469 + x505 <= 1000
 c305: x541 + x577 <= 1000
 c306: x613 + x649 + x685 + x721 <= 1000
 c307: x757 + x793 <= 1000
 c308: <= 1000
 c309: - x4 + x5 <= 0
 c310: - x4 + x6 <= 0
 c311: x1015 + x1016 >= 1
 c312: - x1 + x2 <= 0
 c313: - x1 + x3 <= 0
 c314: x1017 + x1018 >= 1
 i1: x1015 = 1 <-> x5 - x4 >= 0
 i2: x1016 = 1 <-> x6 - x4 >= 0
 i3: x1017 = 1 <-> x2 - x1 >= 0
 i4: x1018 = 1 <-> x3 - x1 >= 0
Bounds
      x1 Free
      x2 Free
      x3 Free
      x4 Free
      x5 Free
      x6 Free
      x7 = 0
      x8 = 0
      x9 = 0
      x10 = 0
      x11 = 0
      x12 = 0
      x13 = 0
      x14 = 0
      x15 = 0
      x16 = 0
      x17 = 0
      x18 = 0
      x19 = 0
      x20 = 0
      x21 = 0
      x22 = 0
      x23 = 0
      x24 = 0
      x25 = 0
      x26 = 0
      x27 = 0
      x28 = 0
      x29 = 0
      x30 = 0
      x31 = 0
      x32 = 0
      x33 = 0
      x34 = 0
      x35 = 0
      x36 = 0
 0 <= x37 <= 100
      x38 = 0
      x39 = 0
      x40 = 0
      x41 = 0
      x42 = 0
      x43 = 0
      x44 = 0
      x45 = 0
      x46 = 0
      x47 = 0
      x48 = 0
      x49 = 0
      x50 = 0
      x51 = 0
      x52 = 0
      x53 = 0
      x54 = 0
      x55 = 0
      x56 = 0
      x57 = 0
      x58 = 0
      x59 = 0
      x60 = 0
      x61 = 0
      x62 = 0
      x63 = 0
      x64 = 0
      x65 = 0
      x66 = 0
      x67 = 0
      x68 = 0
      x69 = 0
      x70 = 0
      x71 = 0
      x72 = 0
 0 <= x73 <= 100
      x74 = 0
      x75 = 0
      x76 = 0
      x77 = 0
      x78 = 0
      x79 = 0
      x80 = 0
      x81 = 0
      x82 = 0
      x83 = 0
      x84 = 0
      x85 = 0
      x86 = 0
      x87 = 0
      x88 = 0
      x89 = 0
      x90 = 0
      x91 = 0
      x92 = 0
      x93 = 0
      x94 = 0
      x95 = 0
      x96 = 0
      x97 = 0
      x98 = 0
      x99 = 0
      x100 = 0
      x101 = 0
      x102 = 0
      x103 = 0
      x104 = 0
      x105 = 0
      x106 = 0
      x107 = 0
      x108 = 0
 0 <= x109 <= 100
      x110 = 0
      x111 = 0
      x112 = 0
      x113 = 0
      x114 = 0
      x115 = 0
      x116 = 0
      x117 = 0
      x118 = 0
      x119 = 0
      x120 = 0
      x121 = 0
      x122 = 0
      x123 = 0
      x124 = 0
      x125 = 0
      x126 = 0
      x127 = 0
      x128 = 0
      x129 = 0
      x130 = 0
      x131 = 0
      x132 = 0
      x133 = 0
      x134 = 0
      x135 = 0
      x136 = 0
      x137 = 0
      x138 = 0
      x139 = 0
      x140 = 0
      x141 = 0
      x142 = 0
      x143 = 0
      x144 = 0
 0 <= x145 <= 100
      x146 = 0
      x147 = 0
      x148 = 0
      x149 = 0
      x150 = 0
      x151 = 0
      x152 = 0
      x153 = 0
      x154 = 0
      x155 = 0
      x156 = 0
      x157 = 0
      x158 = 0
      x159 = 0
      x160 = 0
      x161 = 0
      x162 = 0
      x163 = 0
      x164 = 0
      x165 = 0
      x166 = 0
      x167 = 0
      x168 = 0
      x169 = 0
      x170 = 0
      x171 = 0
      x172 = 0
      x173 = 0
      x174 = 0
      x175 = 0
      x176 = 0
      x177 = 0
      x178 = 0
      x179 = 0
      x180 = 0
 0 <= x181 <= 100
      x182 = 0
      x183 = 0
      x184 = 0
      x185 = 0
      x186 = 0
      x187 = 0
      x188 = 0
      x189 = 0
      x190 = 0
      x191 = 0
      x192 = 0
      x193 = 0
      x194 = 0
      x195 = 0
      x196 = 0
      x197 = 0
      x198 = 0
      x199 = 0
      x200 = 0
      x201 = 0
      x202 = 0
      x203 = 0
      x204 = 0
      x205 = 0
      x206 = 0
      x207 = 0
      x208 = 0
      x209 = 0
      x210 = 0
      x211 = 0
      x212 = 0
      x213 = 0
      x214 = 0
      x215 = 0
      x216 = 0
 0 <= x217 <= 100
      x218 = 0
      x219 = 0
      x220 = 0
      x221 = 0
      x222 = 0
      x223 = 0
      x224 = 0
      x225 = 0
      x226 = 0
      x227 = 0
      x228 = 0
      x229 = 0
      x230 = 0
      x231 = 0
      x232 = 0
      x233 = 0
      x234 = 0
      x235 = 0
      x236 = 0
      x237 = 0
      x238 = 0
      x239 = 0
      x240 = 0
      x241 = 0
      x242 = 0
      x243 = 0
      x244 = 0
      x245 = 0
      x246 = 0
      x247 = 0
      x248 = 0
      x249 = 0
      x250 = 0
      x251 = 0
      x252 = 0
 0 <= x253 <= 100
      x254 = 0
      x255 = 0
      x256 = 0
      x257 = 0
      x258 = 0
      x259 = 0
      x260 = 0
      x261 = 0
      x262 = 0
      x263 = 0
      x264 = 0
      x265 = 0
      x266 = 0
      x267 = 0
      x268 = 0
      x269 = 0
      x270 = 0
      x271 = 0
      x272 = 0
      x273 = 0
      x274 = 0
      x275 = 0
      x276 = 0
      x277 = 0
      x278 = 0
      x279 = 0
      x280 = 0
      x281 = 0
      x282 = 0
      x283 = 0
      x284 = 0
      x285 = 0
      x286 = 0
      x287 = 0
      x288 = 0
 0 <= x289 <= 100
      x290 = 0
      x291 = 0
      x292 = 0
      x293 = 0
      x294 = 0
      x295 = 0
      x296 = 0
      x297 = 0
      x298 = 0
      x299 = 0
      x300 = 0
      x301 = 0
      x302 = 0
      x303 = 0
      x304 = 0
      x305 = 0
      x306 = 0
      x307 = 0
      x308 = 0
      x309 = 0
      x310 = 0
      x311 = 0
      x312 = 0
      x313 = 0
      x314 = 0
      x315 = 0
      x316 = 0
      x317 = 0
      x318 = 0
      x319 = 0
      x320 = 0
      x321 = 0
      x322 = 0
      x323 = 0
      x324 = 0
 0 <= x325 <= 100
      x326 = 0
      x327 = 0
      x328 = 0
      x329 = 0
      x330 = 0
      x331 = 0
      x332 = 0
      x333 = 0
      x334 = 0
      x335 = 0
      x336 = 0
      x337 = 0
      x338 = 0
      x339 = 0
      x340 = 0
      x341 = 0
      x342 = 0
      x343 = 0
      x344 = 0
      x345 = 0
      x346 = 0
      x347 = 0
      x348 = 0
      x349 = 0
      x350 = 0
      x351 = 0
      x352 = 0
      x353 = 0
      x354 = 0
      x355 = 0
      x356 = 0
      x357 = 0
      x358 = 0
      x359 = 0
      x360 = 0
 0 <= x361 <= 100
      x362 = 0
      x363 = 0
      x364 = 0
      x365 = 0
      x366 = 0
      x367 = 0
      x368 = 0
      x369 = 0
      x370 = 0
      x371 = 0
      x372 = 0
      x373 = 0
      x374 = 0
      x375 = 0
      x376 = 0
      x377 = 0
      x378 = 0
      x379 = 0
      x380 = 0
      x381 = 0
      x382 = 0
      x383 = 0
      x384 = 0
      x385 = 0
      x386 = 0
      x387 = 0
      x388 = 0
      x389 = 0
      x390 = 0
      x391 = 0
      x392 = 0
      x393 = 0
      x394 = 0
      x395 = 0
      x396 = 0
 0 <= x397 <= 100
      x398 = 0
      x399 = 0
      x400 = 0
      x401 = 0
      x402 = 0
      x403 = 0
      x404 = 0
      x405 = 0
      x406 = 0
      x407 = 0
      x408 = 0
      x409 = 0
      x410 = 0
      x411 = 0
      x412 = 0
      x413 = 0
      x414 = 0
      x415 = 0
      x416 = 0
      x417 = 0
      x418 = 0
      x419 = 0
      x420 = 0
      x421 = 0
      x422 = 0
      x423 = 0
      x424 = 0
      x425 = 0
      x426 = 0
      x427 = 0
      x428 = 0
      x429 = 0
      x430 = 0
      x431 = 0
      x432 = 0
 0 <= x433 <= 100
      x434 = 0
      x435 = 0
      x436 = 0
      x437 = 0
      x438 = 0
      x439 = 0
      x440 = 0
      x441 = 0
      x442 = 0
      x443 = 0
      x444 = 0
      x445 = 0
      x446 = 0
      x447 = 0
      x448 = 0
      x449 = 0
      x450 = 0
      x451 = 0
      x452 = 0
      x453 = 0
      x454 = 0
      x455 = 0
      x456 = 0
      x457 = 0
      x458 = 0
      x459 = 0
      x460 = 0
      x461 = 0
      x462 = 0
      x463 = 0
      x464 = 0
      x465 = 0
      x466 = 0
      x467 = 0
      x468 = 0
 0 <= x469 <= 100
      x470 = 0
      x471 = 0
      x472 = 0
      x473 = 0
      x474 = 0
      x475 = 0
      x476 = 0
      x477 = 0
      x478 = 0
      x479 = 0
      x480 = 0
      x481 = 0
      x482 = 0
      x483 = 0
      x484 = 0
      x485 = 0
      x486 = 0
      x487 = 0
      x488 = 0
      x489 = 0
      x490 = 0
      x491 = 0
      x492 = 0
      x493 = 0
      x494 = 0
      x495 = 0
      x496 = 0
      x497 = 0
      x498 = 0
      x499 = 0
      x500 = 0
      x501 = 0
      x502 = 0
      x503 = 0
      x504 = 0
 0 <= x505 <= 100
      x506 = 0
      x507 = 0
      x508 = 0
      x509 = 0
      x510 = 0
      x511 = 0
      x512 = 0
      x513 = 0
      x514 = 0
      x515 = 0
      x516 = 0
      x517 = 0
      x518 = 0
      x519 = 0
      x520 = 0
      x521 = 0
      x522 = 0
      x523 = 0
      x524 = 0
      x525 = 0
      x526 = 0
      x527 = 0
      x528 = 0
      x529 = 0
      x530 = 0
      x531 = 0
      x532 = 0
      x533 = 0
      x534 = 0
      x535 = 0
      x536 = 0
      x537 = 0
      x538 = 0
      x539 = 0
      x540 = 0
 0 <= x541 <= 100
      x542 = 0
      x543 = 0
      x544 = 0
      x545 = 0
      x546 = 0
      x547 = 0
      x548 = 0
      x549 = 0
      x550 = 0
      x551 = 0
      x552 = 0
      x553 = 0
      x554 = 0
      x555 = 0
      x556 = 0
      x557 = 0
      x558 = 0
      x559 = 0
      x560 = 0
      x561 = 0
      x562 = 0
      x563 = 0
      x564 = 0
      x565 = 0
      x566 = 0
      x567 = 0
      x568 = 0
      x569 = 0
      x570 = 0
      x571 = 0
      x572 = 0
      x573 = 0
      x574 = 0
      x575 = 0
      x576 = 0
 0 <= x577 <= 100
      x578 = 0
      x579 = 0
      x580 = 0
      x581 = 0
      x582 = 0
      x583 = 0
      x584 = 0
      x585 = 0
      x586 = 0
      x587 = 0
      x588 = 0
      x589 = 0
      x590 = 0
      x591 = 0
      x592 = 0
      x593 = 0
      x594 = 0
      x595 = 0
      x596 = 0
      x597 = 0
      x598 = 0
      x599 = 0
      x600 = 0
      x601 = 0
      x602 = 0
      x603 = 0
      x604 = 0
      x605 = 0
      x606 = 0
      x607 = 0
      x608 = 0
      x609 = 0
      x610 = 0
      x611 = 0
      x612 = 0
 0 <= x613 <= 100
      x614 = 0
      x615 = 0
      x616 = 0
      x617 = 0
      x618 = 0
      x619 = 0
      x620 = 0
      x621 = 0
      x622 = 0
      x623 = 0
      x624 = 0
      x625 = 0
      x626 = 0
      x627 = 0
      x628 = 0
      x629 = 0
      x630 = 0
      x631 = 0
      x632 = 0
      x633 = 0
      x634 = 0
      x635 = 0
      x636 = 0
      x637 = 0
      x638 = 0
      x639 = 0
      x640 = 0
      x641 = 0
      x642 = 0
      x643 = 0
      x644 = 0
      x645 = 0
      x646 = 0
      x647 = 0
      x648 = 0
 0 <= x649 <= 100
      x650 = 0
      x651 = 0
      x652 = 0
      x653 = 0
      x654 = 0
      x655 = 0
      x656 = 0
      x657 = 0
      x658 = 0
      x659 = 0
      x660 = 0
      x661 = 0
      x662 = 0
      x663 = 0
      x664 = 0
      x665 = 0
      x666 = 0
      x667 = 0
      x668 = 0
      x669 = 0
      x670 = 0
      x671 = 0
      x672 = 0
      x673 = 0
      x674 = 0
      x675 = 0
      x676 = 0
      x677 = 0
      x678 = 0
      x679 = 0
      x680 = 0
      x681 = 0
      x682 = 0
      x683 = 0
      x684 = 0
 0 <= x685 <= 100
      x686 = 0
      x687 = 0
      x688 = 0
      x689 = 0
      x690 = 0
      x691 = 0
      x692 = 0
      x693 = 0
      x694 = 0
      x695 = 0
      x696 = 0
      x697 = 0
      x698 = 0
      x699 = 0
      x700 = 0
      x701 = 0
      x702 = 0
      x703 = 0
      x704 = 0
      x705 = 0
      x706 = 0
      x707 = 0
      x708 = 0
      x709 = 0
      x710 = 0
      x711 = 0
      x712 = 0
      x713 = 0
      x714 = 0
      x715 = 0
      x716 = 0
      x717 = 0
      x718 = 0
      x719 = 0
      x720 = 0
 0 <= x721 <= 100
      x722 = 0
      x723 = 0
      x724 = 0
      x725 = 0
      x726 = 0
      x727 = 0
      x728 = 0
      x729 = 0
      x730 = 0
      x731 = 0
      x732 = 0
      x733 = 0
      x734 = 0
      x735 = 0
      x736 = 0
      x737 = 0
      x738 = 0
      x739 = 0
      x740 = 0
      x741 = 0
      x742 = 0
      x743 = 0
      x744 = 0
      x745 = 0
      x746 = 0
      x747 = 0
      x748 = 0
      x749 = 0
      x750 = 0
      x751 = 0
      x752 = 0
      x753 = 0
      x754 = 0
      x755 = 0
      x756 = 0
 0 <= x757 <= 100
      x758 = 0
      x759 = 0
      x760 = 0
      x761 = 0
      x762 = 0
      x763 = 0
      x764 = 0
      x765 = 0
      x766 = 0
      x767 = 0
      x768 = 0
      x769 = 0
      x770 = 0
      x771 = 0
      x772 = 0
      x773 = 0
      x774 = 0
      x775 = 0
      x776 = 0
      x777 = 0
      x778 = 0
      x779 = 0
      x780 = 0
      x781 = 0
      x782 = 0
      x783 = 0
      x784 = 0
      x785 = 0
      x786 = 0
      x787 = 0
      x788 = 0
      x789 = 0
      x790 = 0
      x791 = 0
      x792 = 0
 0 <= x793 <= 100
      x794 = 0
      x795 = 0
      x796 = 0
      x797 = 0
      x798 = 0
      x799 = 0
      x800 = 0
      x801 = 0
      x802 = 0
      x803 = 0
      x804 = 0
      x805 = 0
      x806 = 0
      x807 = 0
      x808 = 0
      x809 = 0
      x810 = 0
      x811 = 0
      x812 = 0
      x813 = 0
      x814 = 0
      x815 = 0
      x816 = 0
      x817 = 0
      x818 = 0
      x819 = 0
      x820 = 0
      x821 = 0
      x822 = 0
      x823 = 0
      x824 = 0
      x825 = 0
      x826 = 0
      x827 = 0
      x828 = 0
 0 <= x829 <= 100
      x830 = 0
      x831 = 0
      x832 = 0
      x833 = 0
      x834 = 0
      x835 = 0
      x836 = 0
      x837 = 0
      x838 = 0
      x839 = 0
      x840 = 0
      x841 = 0
      x842 = 0
      x843 = 0
      x844 = 0
      x845 = 0
      x846 = 0
      x847 = 0
      x848 = 0
      x849 = 0
      x850 = 0
      x851 = 0
      x852 = 0
      x853 = 0
      x854 = 0
      x855 = 0
      x856 = 0
      x857 = 0
      x858 = 0
      x859 = 0
      x860 = 0
      x861 = 0
      x862 = 0
      x863 = 0
      x864 = 0
 0 <= x865 <= 100
      x866 = 0
      x867 = 0
      x868 = 0
      x869 = 0
      x870 = 0
 0 <= x871 <= 100
 0 <= x872 <= 100
 0 <= x873 <= 100
 0 <= x874 <= 100
 0 <= x875 <= 100
 0 <= x876 <= 1
 0 <= x877 <= 100
 0 <= x878 <= 100
 0 <= x879 <= 100
 0 <= x880 <= 100
 0 <= x881 <= 100
 0 <= x882 <= 1
 0 <= x883 <= 100
 0 <= x884 <= 100
 0 <= x885 <= 100
 0 <= x886 <= 100
 0 <= x887 <= 100
 0 <= x888 <= 1
 0 <= x889 <= 100
 0 <= x890 <= 100
 0 <= x891 <= 100
 0 <= x892 <= 100
 0 <= x893 <= 100
 0 <= x894 <= 1
 0 <= x895 <= 1
 0 <= x896 <= 100
 0 <= x897 <= 100
 0 <= x898 <= 100
 0 <= x899 <= 100
 0 <= x900 <= 100
 0 <= x901 <= 1
 0 <= x902 <= 100
 0 <= x903 <= 100
 0 <= x904 <= 100
 0 <= x905 <= 100
 0 <= x906 <= 100
 0 <= x907 <= 100
 0 <= x908 <= 100
 0 <= x909 <= 100
 0 <= x910 <= 100
 0 <= x911 <= 100
 0 <= x912 <= 100
 0 <= x913 <= 100
 0 <= x914 <= 100
 0 <= x915 <= 100
 0 <= x916 <= 100
 0 <= x917 <= 100
 0 <= x918 <= 100
 0 <= x919 <= 100
 0 <= x920 <= 100
 0 <= x921 <= 100
 0 <= x922 <= 100
 0 <= x923 <= 100
 0 <= x924 <= 100
 0 <= x925 <= 100
 0 <= x926 <= 100
 0 <= x927 <= 1
 1 <= x928 <= 20
      x929 = 0
 1 <= x930 <= 120
 0 <= x931 <= 1
 1 <= x932 <= 120
      x933 = 0
 0 <= x934 <= 1
 1 <= x935 <= 120
 1 <= x936 <= 120
 0 <= x937 <= 1
 1 <= x938 <= 120
 1 <= x939 <= 120
 0 <= x940 <= 1
 1 <= x941 <= 120
 1 <= x942 <= 120
 1 <= x943 <= 120
 1 <= x944 <= 120
 0 <= x945 <= 1
 1 <= x946 <= 20
 1 <= x947 <= 120
 0 <= x948 <= 1
 1 <= x949 <= 120
 0 <= x950 <= 1
      x951 = 0
 0 <= x952 <= 1
 1 <= x953 <= 120
 0 <= x954 <= 1
 1 <= x955 <= 120
 1 <= x956 <= 120
 0 <= x957 <= 1
 1 <= x958 <= 20
 1 <= x959 <= 120
 0 <= x960 <= 1
 1 <= x961 <= 120
 0 <= x962 <= 1
 1 <= x963 <= 120
 0 <= x964 <= 1
      x965 = 0
 0 <= x966 <= 1
 1 <= x967 <= 120
 1 <= x968 <= 120
 0 <= x969 <= 1
 1 <= x970 <= 20
 1 <= x971 <= 120
 0 <= x972 <= 1
 1 <= x973 <= 120
 0 <= x974 <= 1
 1 <= x975 <= 120
 0 <= x976 <= 1
 1 <= x977 <= 120
 0 <= x978 <= 1
      x979 = 0
 1 <= x980 <= 120
 0 <= x981 <= 1
 1 <= x982 <= 20
 0 <= x983 <= 1
 0 <= x984 <= 1
 0 <= x985 <= 1
 0 <= x986 <= 1
 0 <= x987 <= 1
 1 <= x988 <= 20
 1 <= x989 <= 120
 0 <= x990 <= 1
 1 <= x991 <= 120
 0 <= x992 <= 1
 1 <= x993 <= 120
 0 <= x994 <= 1
 1 <= x995 <= 120
 0 <= x996 <= 1
 1 <= x997 <= 120
      x998 = 0
 0 <= x999 <= 1
 0 <= x1000 <= 1
 0 <= x1001 <= 1
 0 <= x1002 <= 1
 0 <= x1003 <= 1
 0 <= x1004 <= 1
 0 <= x1005 <= 1
 0 <= x1006 <= 1
 0 <= x1007 <= 1
 0 <= x1008 <= 1
 0 <= x1009 <= 1
 0 <= x1010 <= 1
 0 <= x1011 <= 1
 0 <= x1012 <= 1
 0 <= x1013 <= 1
 0 <= x1014 <= 1
 0 <= x1015 <= 1
 0 <= x1016 <= 1
 0 <= x1017 <= 1
 0 <= x1018 <= 1
Binaries
 x1015  x1016  x1017  x1018 
Generals
 x876  x882  x888  x894  x895  x901  x927  x928  x929  x930  x931  x932  x933 
 x934  x935  x936  x937  x938  x939  x940  x941  x942  x943  x944  x945  x946 
 x947  x948  x949  x950  x951  x952  x953  x954  x955  x956  x957  x958  x959 
 x960  x961  x962  x963  x964  x965  x966  x967  x968  x969  x970  x971  x972 
 x973  x974  x975  x976  x977  x978  x979  x980  x981  x982  x983  x984  x985 
 x986  x987  x988  x989  x990  x991  x992  x993  x994  x995  x996  x997  x998 
 x999  x1000  x1001  x1002  x1003  x1004  x1005  x1006  x1007  x1008  x1009 
 x1010  x1011  x1012  x1013  x1014 
Semi-Continuous
 x7  x8  x9  x10  x11  x12  x13  x14  x15  x16  x17  x18  x19  x20  x21  x22 
 x23  x24  x25  x26  x27  x28  x29  x30  x31  x32  x33  x34  x35  x36  x37 
 x38  x39  x40  x41  x42  x43  x44  x45  x46  x47  x48  x49  x50  x51  x52 
 x53  x54  x55  x56  x57  x58  x59  x60  x61  x62  x63  x64  x65  x66  x67 
 x68  x69  x70  x71  x72  x73  x74  x75  x76  x77  x78  x79  x80  x81  x82 
 x83  x84  x85  x86  x87  x88  x89  x90  x91  x92  x93  x94  x95  x96  x97 
 x98  x99  x100  x101  x102  x103  x104  x105  x106  x107  x108  x109  x110 
 x111  x112  x113  x114  x115  x116  x117  x118  x119  x120  x121  x122  x123 
 x124  x125  x126  x127  x128  x129  x130  x131  x132  x133  x134  x135  x136 
 x137  x138  x139  x140  x141  x142  x143  x144  x145  x146  x147  x148  x149 
 x150  x151  x152  x153  x154  x155  x156  x157  x158  x159  x160  x161  x162 
 x163  x164  x165  x166  x167  x168  x169  x170  x171  x172  x173  x174  x175 
 x176  x177  x178  x179  x180  x181  x182  x183  x184  x185  x186  x187  x188 
 x189  x190  x191  x192  x193  x194  x195  x196  x197  x198  x199  x200  x201 
 x202  x203  x204  x205  x206  x207  x208  x209  x210  x211  x212  x213  x214 
 x215  x216  x217  x218  x219  x220  x221  x222  x223  x224  x225  x226  x227 
 x228  x229  x230  x231  x232  x233  x234  x235  x236  x237  x238  x239  x240 
 x241  x242  x243  x244  x245  x246  x247  x248  x249  x250  x251  x252  x253 
 x254  x255  x256  x257  x258  x259  x260  x261  x262  x263  x264  x265  x266 
 x267  x268  x269  x270  x271  x272  x273  x274  x275  x276  x277  x278  x279 
 x280  x281  x282  x283  x284  x285  x286  x287  x288  x289  x290  x291  x292 
 x293  x294  x295  x296  x297  x298  x299  x300  x301  x302  x303  x304  x305 
 x306  x307  x308  x309  x310  x311  x312  x313  x314  x315  x316  x317  x318 
 x319  x320  x321  x322  x323  x324  x325  x326  x327  x328  x329  x330  x331 
 x332  x333  x334  x335  x336  x337  x338  x339  x340  x341  x342  x343  x344 
 x345  x346  x347  x348  x349  x350  x351  x352  x353  x354  x355  x356  x357 
 x358  x359  x360  x361  x362  x363  x364  x365  x366  x367  x368  x369  x370 
 x371  x372  x373  x374  x375  x376  x377  x378  x379  x380  x381  x382  x383 
 x384  x385  x386  x387  x388  x389  x390  x391  x392  x393  x394  x395  x396 
 x397  x398  x399  x400  x401  x402  x403  x404  x405  x406  x407  x408  x409 
 x410  x411  x412  x413  x414  x415  x416  x417  x418  x419  x420  x421  x422 
 x423  x424  x425  x426  x427  x428  x429  x430  x431  x432  x433  x434  x435 
 x436  x437  x438  x439  x440  x441  x442  x443  x444  x445  x446  x447  x448 
 x449  x450  x451  x452  x453  x454  x455  x456  x457  x458  x459  x460  x461 
 x462  x463  x464  x465  x466  x467  x468  x469  x470  x471  x472  x473  x474 
 x475  x476  x477  x478  x479  x480  x481  x482  x483  x484  x485  x486  x487 
 x488  x489  x490  x491  x492  x493  x494  x495  x496  x497  x498  x499  x500 
 x501  x502  x503  x504  x505  x506  x507  x508  x509  x510  x511  x512  x513 
 x514  x515  x516  x517  x518  x519  x520  x521  x522  x523  x524  x525  x526 
 x527  x528  x529  x530  x531  x532  x533  x534  x535  x536  x537  x538  x539 
 x540  x541  x542  x543  x544  x545  x546  x547  x548  x549  x550  x551  x552 
 x553  x554  x555  x556  x557  x558  x559  x560  x561  x562  x563  x564  x565 
 x566  x567  x568  x569  x570  x571  x572  x573  x574  x575  x576  x577  x578 
 x579  x580  x581  x582  x583  x584  x585  x586  x587  x588  x589  x590  x591 
 x592  x593  x594  x595  x596  x597  x598  x599  x600  x601  x602  x603  x604 
 x605  x606  x607  x608  x609  x610  x611  x612  x613  x614  x615  x616  x617 
 x618  x619  x620  x621  x622  x623  x624  x625  x626  x627  x628  x629  x630 
 x631  x632  x633  x634  x635  x636  x637  x638  x639  x640  x641  x642  x643 
 x644  x645  x646  x647  x648  x649  x650  x651  x652  x653  x654  x655  x656 
 x657  x658  x659  x660  x661  x662  x663  x664  x665  x666  x667  x668  x669 
 x670  x671  x672  x673  x674  x675  x676  x677  x678  x679  x680  x681  x682 
 x683  x684  x685  x686  x687  x688  x689  x690  x691  x692  x693  x694  x695 
 x696  x697  x698  x699  x700  x701  x702  x703  x704  x705  x706  x707  x708 
 x709  x710  x711  x712  x713  x714  x715  x716  x717  x718  x719  x720  x721 
 x722  x723  x724  x725  x726  x727  x728  x729  x730  x731  x732  x733  x734 
 x735  x736  x737  x738  x739  x740  x741  x742  x743  x744  x745  x746  x747 
 x748  x749  x750  x751  x752  x753  x754  x755  x756  x757  x758  x759  x760 
 x761  x762  x763  x764  x765  x766  x767  x768  x769  x770  x771  x772  x773 
 x774  x775  x776  x777  x778  x779  x780  x781  x782  x783  x784  x785  x786 
 x787  x788  x789  x790  x791  x792  x793  x794  x795  x796  x797  x798  x799 
 x800  x801  x802  x803  x804  x805  x806  x807  x808  x809  x810  x811  x812 
 x813  x814  x815  x816  x817  x818  x819  x820  x821  x822  x823  x824  x825 
 x826  x827  x828  x829  x830  x831  x832  x833  x834  x835  x836  x837  x838 
 x839  x840  x841  x842  x843  x844  x845  x846  x847  x848  x849  x850  x851 
 x852  x853  x854  x855  x856  x857  x858  x859  x860  x861  x862  x863  x864 
 x865  x866  x867  x868  x869  x870  x871  x872  x873  x874  x875  x877  x878 
 x879  x880  x881  x883  x884  x885  x886  x887  x889  x890  x891  x892  x893 
 x896  x897  x898  x899  x900  x902  x903  x904  x905  x906  x907  x908  x909 
 x910  x911  x912  x913  x914  x915  x916  x917  x918  x919  x920  x921  x922 
 x923  x924  x925  x926 
End
